


































































































9 39 55 4 11 
31 63 14 15 40 
30 72 43 76 12 
5 60 10 68 54 
17 52 73 0 19 
41 37 67 38 23 
62 3 2 57 7 
75 74 47 28 25 36 
69 33 29 58 26 
34 22 8 51 44 
56 65 16 53 49 35 
66 32 13 48 20 
45 18 6 42 1 
59 70 27 71 46 
21 24 61 64 50 

